;; variablesxx
(declare-var N_1_XRAM_nxt (Array Int Int))
(declare-var N_1_sha_bytes_read_nxt Int)
(declare-var N_1_sha_hs_data_nxt Int)
(declare-var N_1_sha_len_nxt Int)
(declare-var N_1_sha_rd_data_nxt Int)
(declare-var N_1_sha_rdaddr_nxt Int)
(declare-var N_1_sha_state_nxt Int)
(declare-var N_1_sha_wraddr_nxt Int)
(declare-var N_2_XRAM_nxt (Array Int Int))
(declare-var N_2_sha_bytes_read_nxt Int)
(declare-var N_2_sha_hs_data_nxt Int)
(declare-var N_2_sha_len_nxt Int)
(declare-var N_2_sha_rd_data_nxt Int)
(declare-var N_2_sha_rdaddr_nxt Int)
(declare-var N_2_sha_state_nxt Int)
(declare-var N_2_sha_wraddr_nxt Int)
(declare-var N_3_XRAM_nxt (Array Int Int))
(declare-var N_3_sha_bytes_read_nxt Int)
(declare-var N_3_sha_hs_data_nxt Int)
(declare-var N_3_sha_len_nxt Int)
(declare-var N_3_sha_rd_data_nxt Int)
(declare-var N_3_sha_rdaddr_nxt Int)
(declare-var N_3_sha_state_nxt Int)
(declare-var N_3_sha_wraddr_nxt Int)
(declare-var N_4_XRAM_nxt (Array Int Int))
(declare-var N_4_sha_bytes_read_nxt Int)
(declare-var N_4_sha_hs_data_nxt Int)
(declare-var N_4_sha_len_nxt Int)
(declare-var N_4_sha_rd_data_nxt Int)
(declare-var N_4_sha_rdaddr_nxt Int)
(declare-var N_4_sha_state_nxt Int)
(declare-var N_4_sha_wraddr_nxt Int)
(declare-var N_fe00_XRAM_nxt (Array Int Int))
(declare-var N_fe00_sha_bytes_read_nxt Int)
(declare-var N_fe00_sha_hs_data_nxt Int)
(declare-var N_fe00_sha_len_nxt Int)
(declare-var N_fe00_sha_rd_data_nxt Int)
(declare-var N_fe00_sha_rdaddr_nxt Int)
(declare-var N_fe00_sha_state_nxt Int)
(declare-var N_fe00_sha_wraddr_nxt Int)
(declare-var N_fe01_XRAM_nxt (Array Int Int))
(declare-var N_fe01_sha_bytes_read_nxt Int)
(declare-var N_fe01_sha_hs_data_nxt Int)
(declare-var N_fe01_sha_len_nxt Int)
(declare-var N_fe01_sha_rd_data_nxt Int)
(declare-var N_fe01_sha_rdaddr_nxt Int)
(declare-var N_fe01_sha_state_nxt Int)
(declare-var N_fe01_sha_wraddr_nxt Int)
(declare-var XRAM (Array Int Int))
(declare-var b0 Bool)
(declare-var b1 Bool)
(declare-var b100 Bool)
(declare-var b110 Bool)
(declare-var b114 Bool)
(declare-var b117 Bool)
(declare-var b127 Bool)
(declare-var b13 Bool)
(declare-var b131 Bool)
(declare-var b134 Bool)
(declare-var b14 Bool)
(declare-var b141 Bool)
(declare-var b15 Bool)
(declare-var b17 Bool)
(declare-var b19 Bool)
(declare-var b2 Bool)
(declare-var b22 Bool)
(declare-var b36 Bool)
(declare-var b37 Bool)
(declare-var b38 Bool)
(declare-var b40 Bool)
(declare-var b42 Bool)
(declare-var b45 Bool)
(declare-var b5 Bool)
(declare-var b54 Bool)
(declare-var b55 Bool)
(declare-var b56 Bool)
(declare-var b58 Bool)
(declare-var b60 Bool)
(declare-var b71 Bool)
(declare-var b75 Bool)
(declare-var b78 Bool)
(declare-var b8 Bool)
(declare-var b86 Bool)
(declare-var b93 Bool)
(declare-var b97 Bool)
(declare-var bv113 Int)
(declare-var bv116 Int)
(declare-var bv12 Int)
(declare-var bv130 Int)
(declare-var bv133 Int)
(declare-var bv21 Int)
(declare-var bv35 Int)
(declare-var bv44 Int)
(declare-var bv74 Int)
(declare-var bv77 Int)
(declare-var bv85 Int)
(declare-var bv88 Int)
(declare-var bv96 Int)
(declare-var bv99 Int)
(declare-var cmd Int)
(declare-var cmdaddr Int)
(declare-var cmddata Int)
(declare-var delta_1 Bool)
(declare-var delta_2 Bool)
(declare-var delta_3 Bool)
(declare-var delta_4 Bool)
(declare-var delta_fe00 Bool)
(declare-var delta_fe01 Bool)
(declare-var mem140 (Array Int Int))
(declare-var mem143 (Array Int Int))
(declare-var mem143_1 (Array Int Int))
(declare-var mem143_10 (Array Int Int))
(declare-var mem143_11 (Array Int Int))
(declare-var mem143_12 (Array Int Int))
(declare-var mem143_13 (Array Int Int))
(declare-var mem143_14 (Array Int Int))
(declare-var mem143_15 (Array Int Int))
(declare-var mem143_16 (Array Int Int))
(declare-var mem143_17 (Array Int Int))
(declare-var mem143_18 (Array Int Int))
(declare-var mem143_19 (Array Int Int))
(declare-var mem143_2 (Array Int Int))
(declare-var mem143_3 (Array Int Int))
(declare-var mem143_4 (Array Int Int))
(declare-var mem143_5 (Array Int Int))
(declare-var mem143_6 (Array Int Int))
(declare-var mem143_7 (Array Int Int))
(declare-var mem143_8 (Array Int Int))
(declare-var mem143_9 (Array Int Int))
(declare-var sha_bytes_read Int)
(declare-var sha_hs_data Int)
(declare-var sha_len Int)
(declare-var sha_rd_data Int)
(declare-var sha_rdaddr Int)
(declare-var sha_state Int)
(declare-var sha_wraddr Int)
;; relations
(declare-rel rel.delta_fe00 (Int Int Int Bool))
(declare-rel rel.N_fe00_sha_state_nxt (Int Int Int Int Int))
(declare-rel rel.N_fe00_sha_rdaddr_nxt (Int Int))
(declare-rel rel.N_fe00_sha_wraddr_nxt (Int Int))
(declare-rel rel.N_fe00_sha_len_nxt (Int Int))
(declare-rel rel.N_fe00_XRAM_nxt ((Array Int Int) (Array Int Int)))
(declare-rel rel.N_fe00_sha_bytes_read_nxt (Int Int Int Int Int Int))
(declare-rel rel.N_fe00_sha_rd_data_nxt (Int Int))
(declare-rel rel.N_fe00_sha_hs_data_nxt (Int Int))
(declare-rel rel.delta_fe01 (Int Int Int Bool))
(declare-rel rel.N_fe01_sha_state_nxt (Int Int))
(declare-rel rel.N_fe01_sha_rdaddr_nxt (Int Int))
(declare-rel rel.N_fe01_sha_wraddr_nxt (Int Int))
(declare-rel rel.N_fe01_sha_len_nxt (Int Int))
(declare-rel rel.N_fe01_XRAM_nxt ((Array Int Int) (Array Int Int)))
(declare-rel rel.N_fe01_sha_bytes_read_nxt (Int Int))
(declare-rel rel.N_fe01_sha_rd_data_nxt (Int Int))
(declare-rel rel.N_fe01_sha_hs_data_nxt (Int Int))
(declare-rel rel.delta_1 (Int Bool))
(declare-rel rel.N_1_sha_rdaddr_nxt (Int Int))
(declare-rel rel.N_1_sha_state_nxt (Int Int Int Int))
(declare-rel rel.N_1_sha_wraddr_nxt (Int Int))
(declare-rel rel.N_1_sha_len_nxt (Int Int))
(declare-rel rel.N_1_XRAM_nxt ((Array Int Int) (Array Int Int)))
(declare-rel rel.N_1_sha_rd_data_nxt (Int Int))
(declare-rel rel.N_1_sha_bytes_read_nxt (Int Int Int))
(declare-rel rel.N_1_sha_hs_data_nxt (Int Int))
(declare-rel rel.delta_2 (Int Bool))
(declare-rel rel.N_2_sha_state_nxt (Int Int Int Int))
(declare-rel rel.N_2_sha_rdaddr_nxt (Int Int))
(declare-rel rel.N_2_sha_wraddr_nxt (Int Int))
(declare-rel rel.N_2_sha_len_nxt (Int Int))
(declare-rel rel.N_2_XRAM_nxt ((Array Int Int) (Array Int Int)))
(declare-rel rel.N_2_sha_rd_data_nxt (Int Int))
(declare-rel rel.N_2_sha_bytes_read_nxt (Int Int))
(declare-rel rel.N_2_sha_hs_data_nxt (Int Int))
(declare-rel rel.delta_3 (Int Bool))
(declare-rel rel.N_3_sha_rdaddr_nxt (Int Int))
(declare-rel rel.N_3_sha_state_nxt (Int Int Int Int))
(declare-rel rel.N_3_sha_wraddr_nxt (Int Int))
(declare-rel rel.N_3_sha_len_nxt (Int Int))
(declare-rel rel.N_3_XRAM_nxt ((Array Int Int) (Array Int Int)))
(declare-rel rel.N_3_sha_bytes_read_nxt (Int Int))
(declare-rel rel.N_3_sha_rd_data_nxt (Int Int))
(declare-rel rel.N_3_sha_hs_data_nxt (Int Int))
(declare-rel rel.delta_4 (Int Bool))
(declare-rel rel.N_4_sha_rdaddr_nxt (Int Int))
(declare-rel rel.N_4_sha_state_nxt (Int Int Int Int))
(declare-rel rel.N_4_sha_wraddr_nxt (Int Int))
(declare-rel rel.N_4_sha_len_nxt (Int Int))
(declare-rel rel.N_4_XRAM_nxt ((Array Int Int) Int Int Int (Array Int Int)))
(declare-rel rel.N_4_sha_bytes_read_nxt (Int Int))
(declare-rel rel.N_4_sha_rd_data_nxt (Int Int))
(declare-rel rel.N_4_sha_hs_data_nxt (Int Int))
;; clauses
(rule (=> (and true)
          (rel.N_fe00_sha_wraddr_nxt sha_wraddr sha_wraddr)))
(rule (=> (and (= b0 (and b1 b8))
               (= b1 (and b2 b5))
               (= b2 (= cmd 2))
               (= b5 (= cmdaddr 65024))
               (= b8 (= sha_state 0)))
          (rel.delta_fe00 cmd cmdaddr sha_state b0)))
(rule (=> (and (= b13 (and b14 b19))
               (= b14 (and b15 b17))
               (= b15 (= cmd 2))
               (= b17 (= cmdaddr 65024))
               (= b19 (= sha_state 0))
               (= b22 (= cmddata 1))
               (= bv12 (ite b13 bv21 sha_state))
               (= bv21 (ite b22 1 sha_state)))
          (rel.N_fe00_sha_state_nxt cmd cmdaddr cmddata sha_state bv12)))
(rule (=> (and true)
          (rel.N_fe00_sha_rdaddr_nxt sha_rdaddr sha_rdaddr)))
(rule (=> (and true)
          (rel.N_fe00_sha_len_nxt sha_len sha_len)))
(rule (=> (and true)
          (rel.N_fe00_XRAM_nxt XRAM XRAM)))
(rule (=> (and true)
          (rel.N_fe00_sha_hs_data_nxt sha_hs_data sha_hs_data)))
(rule (=> (and true)
          (rel.N_fe00_sha_rd_data_nxt sha_rd_data sha_rd_data)))
(rule (=> (and (= b36 (and b37 b42))
               (= b37 (and b38 b40))
               (= b38 (= cmd 2))
               (= b40 (= cmdaddr 65024))
               (= b42 (= sha_state 0))
               (= b45 (= cmddata 1))
               (= bv35 (ite b36 bv44 sha_bytes_read))
               (= bv44 (ite b45 0 sha_bytes_read)))
          (rel.N_fe00_sha_bytes_read_nxt cmd cmdaddr cmddata sha_bytes_read sha_state bv35)))
(rule (=> (and (= b54 (and b55 b60))
               (= b55 (and b56 b58))
               (= b56 (= cmd 2))
               (= b58 (= cmdaddr 65025))
               (= b60 (= sha_state 0)))
          (rel.delta_fe01 cmd cmdaddr sha_state b54)))
(rule (=> (and true)
          (rel.N_fe01_sha_state_nxt sha_state sha_state)))
(rule (=> (and true)
          (rel.N_fe01_sha_wraddr_nxt sha_wraddr sha_wraddr)))
(rule (=> (and true)
          (rel.N_fe01_XRAM_nxt XRAM XRAM)))
(rule (=> (and true)
          (rel.N_fe01_sha_bytes_read_nxt sha_bytes_read sha_bytes_read)))
(rule (=> (and true)
          (rel.N_fe01_sha_rd_data_nxt sha_rd_data sha_rd_data)))
(rule (=> (and true)
          (rel.N_fe01_sha_hs_data_nxt sha_hs_data sha_hs_data)))
(rule (=> (and (= b71 (= sha_state 1))
               true)
          (rel.delta_1 sha_state b71)))
(rule (=> (and true)
          (rel.N_fe01_sha_rdaddr_nxt sha_rdaddr sha_rdaddr)))
(rule (=> (and true)
          (rel.N_fe01_sha_len_nxt sha_len sha_len)))
(rule (=> (and true)
          (rel.N_1_sha_wraddr_nxt sha_wraddr sha_wraddr)))
(rule (=> (and true)
          (rel.N_1_sha_rdaddr_nxt sha_rdaddr sha_rdaddr)))
(rule (=> (and true)
          (rel.N_1_sha_len_nxt sha_len sha_len)))
(rule (=> (and true)
          (rel.N_1_XRAM_nxt XRAM XRAM)))
(rule (=> (and (= b75 (= sha_state 1))
               (= b78 (< sha_bytes_read sha_len))
               (= bv74 (ite b75 bv77 sha_state))
               (= bv77 (ite b78 2 2)))
          (rel.N_1_sha_state_nxt sha_bytes_read sha_len sha_state bv74)))
(rule (=> (and true)
          (rel.N_1_sha_rd_data_nxt sha_rd_data sha_rd_data)))
(rule (=> (and (= b86 (= sha_state 1))
               (= bv85 (ite b86 bv88 sha_bytes_read))
               (= bv88 (+ sha_bytes_read 64)))
          (rel.N_1_sha_bytes_read_nxt sha_bytes_read sha_state bv85)))
(rule (=> (and true)
          (rel.N_1_sha_hs_data_nxt sha_hs_data sha_hs_data)))
(rule (=> (and (= b93 (= sha_state 2))
               true)
          (rel.delta_2 sha_state b93)))
(rule (=> (and (= b100 (< sha_bytes_read sha_len))
               (= b97 (= sha_state 2))
               (= bv96 (ite b97 bv99 sha_state))
               (= bv99 (ite b100 3 3)))
          (rel.N_2_sha_state_nxt sha_bytes_read sha_len sha_state bv96)))
(rule (=> (and true)
          (rel.N_2_sha_wraddr_nxt sha_wraddr sha_wraddr)))
(rule (=> (and true)
          (rel.N_2_sha_rdaddr_nxt sha_rdaddr sha_rdaddr)))
(rule (=> (and true)
          (rel.N_2_sha_len_nxt sha_len sha_len)))
(rule (=> (and true)
          (rel.N_2_sha_bytes_read_nxt sha_bytes_read sha_bytes_read)))
(rule (=> (and true)
          (rel.N_2_XRAM_nxt XRAM XRAM)))
(rule (=> (and true)
          (rel.N_2_sha_rd_data_nxt sha_rd_data sha_rd_data)))
(rule (=> (and true)
          (rel.N_2_sha_hs_data_nxt sha_hs_data sha_hs_data)))
(rule (=> (and (= b110 (= sha_state 3))
               true)
          (rel.delta_3 sha_state b110)))
(rule (=> (and true)
          (rel.N_3_sha_rdaddr_nxt sha_rdaddr sha_rdaddr)))
(rule (=> (and (= b114 (= sha_state 3))
               (= b117 (< sha_bytes_read sha_len))
               (= bv113 (ite b114 bv116 sha_state))
               (= bv116 (ite b117 4 4)))
          (rel.N_3_sha_state_nxt sha_bytes_read sha_len sha_state bv113)))
(rule (=> (and true)
          (rel.N_3_sha_wraddr_nxt sha_wraddr sha_wraddr)))
(rule (=> (and true)
          (rel.N_3_sha_len_nxt sha_len sha_len)))
(rule (=> (and true)
          (rel.N_3_XRAM_nxt XRAM XRAM)))
(rule (=> (and true)
          (rel.N_3_sha_bytes_read_nxt sha_bytes_read sha_bytes_read)))
(rule (=> (and true)
          (rel.N_3_sha_rd_data_nxt sha_rd_data sha_rd_data)))
(rule (=> (and true)
          (rel.N_3_sha_hs_data_nxt sha_hs_data sha_hs_data)))
(rule (=> (and (= b127 (= sha_state 4))
               true)
          (rel.delta_4 sha_state b127)))
(rule (=> (and true)
          (rel.N_4_sha_rdaddr_nxt sha_rdaddr sha_rdaddr)))
(rule (=> (and (= b131 (= sha_state 4))
               (= b134 (< sha_bytes_read sha_len))
               (= bv130 (ite b131 bv133 sha_state))
               (= bv133 (ite b134 0 0)))
          (rel.N_4_sha_state_nxt sha_bytes_read sha_len sha_state bv130)))
(rule (=> (and true)
          (rel.N_4_sha_wraddr_nxt sha_wraddr sha_wraddr)))
(rule (=> (and true)
          (rel.N_4_sha_len_nxt sha_len sha_len)))
(declare-var nd0 Int)
(declare-var nd1 Int)
(declare-var nd2 Int)
(declare-var nd3 Int)
(declare-var nd4 Int)
(declare-var nd5 Int)
(declare-var nd6 Int)
(declare-var nd7 Int)
(declare-var nd8 Int)
(declare-var nd9 Int)
(declare-var nd10 Int)
(declare-var nd11 Int)
(declare-var nd12 Int)
(declare-var nd13 Int)
(declare-var nd14 Int)
(declare-var nd15 Int)
(declare-var nd16 Int)
(declare-var nd17 Int)
(declare-var nd18 Int)
(declare-var nd19 Int)
(declare-var test_hs_data (Array Int Int))
(rule (=> (and (= b141 (= sha_state 4))
               (= mem140 (ite b141 mem143 XRAM))
               (= mem143 (store mem143_1 sha_wraddr nd0))
               (= mem143_1 (store mem143_2 (+ sha_wraddr 1) nd1))
               (= mem143_2 (store mem143_3 (+ sha_wraddr 2) nd2))
               (= mem143_3 (store mem143_4 (+ sha_wraddr 3) nd3))
               (= mem143_4 (store mem143_5 (+ sha_wraddr 4) nd4))
               (= mem143_5 (store mem143_6 (+ sha_wraddr 5) nd5))
               (= mem143_6 (store mem143_7 (+ sha_wraddr 6) nd6))
               (= mem143_7 (store mem143_8 (+ sha_wraddr 7) nd7))
               (= mem143_8 (store mem143_9 (+ sha_wraddr 8) nd8))
               (= mem143_9 (store mem143_10 (+ sha_wraddr 9) nd9))
               (= mem143_10 (store mem143_11 (+ sha_wraddr 10) nd10))
               (= mem143_11 (store mem143_12 (+ sha_wraddr 11) nd11))
               (= mem143_12 (store mem143_13 (+ sha_wraddr 12) nd12))
               (= mem143_13 (store mem143_14 (+ sha_wraddr 13) nd13))
               (= mem143_14 (store mem143_15 (+ sha_wraddr 14) nd14))
               (= mem143_15 (store mem143_16 (+ sha_wraddr 15) nd15))
               (= mem143_16 (store mem143_17 (+ sha_wraddr 16) nd16))
               (= mem143_17 (store mem143_18 (+ sha_wraddr 17) nd17))
               (= mem143_18 (store mem143_19 (+ sha_wraddr 18) nd18))
               (= mem143_19 (store XRAM (+ sha_wraddr 19) nd19))
               (= nd0 (select test_hs_data 0))
               (= nd1 (select test_hs_data 1))
               (= nd2 (select test_hs_data 2))
               (= nd3 (select test_hs_data 3))
               (= nd4 (select test_hs_data 4))
               (= nd5 (select test_hs_data 5))
               (= nd6 (select test_hs_data 6))
               (= nd7 (select test_hs_data 7))
               (= nd8 (select test_hs_data 8))
               (= nd9 (select test_hs_data 9))
               (= nd10 (select test_hs_data 10))
               (= nd11 (select test_hs_data 11))
               (= nd12 (select test_hs_data 12))
               (= nd13 (select test_hs_data 13))
               (= nd14 (select test_hs_data 14))
               (= nd15 (select test_hs_data 15))
               (= nd16 (select test_hs_data 16))
               (= nd17 (select test_hs_data 17))
               (= nd18 (select test_hs_data 18))
               (= nd19 (select test_hs_data 19))
               ;(= mem143 (store mem143_1 sha_wraddr (bv2int ((_ extract 159 152) ((_ int2bv 160) sha_hs_data)))))
               ;(= mem143_1 (store mem143_2 (+ sha_wraddr 1) (bv2int ((_ extract 151 144) ((_ int2bv 160) sha_hs_data)))))
               ;(= mem143_10 (store mem143_11 (+ sha_wraddr 10) (bv2int ((_ extract 79 72) ((_ int2bv 160) sha_hs_data)))))
               ;(= mem143_11 (store mem143_12 (+ sha_wraddr 11) (bv2int ((_ extract 71 64) ((_ int2bv 160) sha_hs_data)))))
               ;(= mem143_12 (store mem143_13 (+ sha_wraddr 12) (bv2int ((_ extract 63 56) ((_ int2bv 160) sha_hs_data)))))
               ;(= mem143_13 (store mem143_14 (+ sha_wraddr 13) (bv2int ((_ extract 55 48) ((_ int2bv 160) sha_hs_data)))))
               ;(= mem143_14 (store mem143_15 (+ sha_wraddr 14) (bv2int ((_ extract 47 40) ((_ int2bv 160) sha_hs_data)))))
               ;(= mem143_15 (store mem143_16 (+ sha_wraddr 15) (bv2int ((_ extract 39 32) ((_ int2bv 160) sha_hs_data)))))
               ;(= mem143_16 (store mem143_17 (+ sha_wraddr 16) (bv2int ((_ extract 31 24) ((_ int2bv 160) sha_hs_data)))))
               ;(= mem143_17 (store mem143_18 (+ sha_wraddr 17) (bv2int ((_ extract 23 16) ((_ int2bv 160) sha_hs_data)))))
               ;(= mem143_18 (store mem143_19 (+ sha_wraddr 18) (bv2int ((_ extract 15 8) ((_ int2bv 160) sha_hs_data)))))
               ;(= mem143_19 (store XRAM (+ sha_wraddr 19) (bv2int ((_ extract 7 0) ((_ int2bv 160) sha_hs_data)))))
               ;(= mem143_2 (store mem143_3 (+ sha_wraddr 2) (bv2int ((_ extract 143 136) ((_ int2bv 160) sha_hs_data)))))
               ;(= mem143_3 (store mem143_4 (+ sha_wraddr 3) (bv2int ((_ extract 135 128) ((_ int2bv 160) sha_hs_data)))))
               ;(= mem143_4 (store mem143_5 (+ sha_wraddr 4) (bv2int ((_ extract 127 120) ((_ int2bv 160) sha_hs_data)))))
               ;(= mem143_5 (store mem143_6 (+ sha_wraddr 5) (bv2int ((_ extract 119 112) ((_ int2bv 160) sha_hs_data)))))
               ;(= mem143_6 (store mem143_7 (+ sha_wraddr 6) (bv2int ((_ extract 111 104) ((_ int2bv 160) sha_hs_data)))))
               ;(= mem143_7 (store mem143_8 (+ sha_wraddr 7) (bv2int ((_ extract 103 96) ((_ int2bv 160) sha_hs_data)))))
               ;(= mem143_8 (store mem143_9 (+ sha_wraddr 8) (bv2int ((_ extract 95 88) ((_ int2bv 160) sha_hs_data)))))
               ;(= mem143_9 (store mem143_10 (+ sha_wraddr 9) (bv2int ((_ extract 87 80) ((_ int2bv 160) sha_hs_data))))))
               )
          (rel.N_4_XRAM_nxt XRAM sha_hs_data sha_state sha_wraddr mem140)))
(rule (=> (and true)
          (rel.N_4_sha_bytes_read_nxt sha_bytes_read sha_bytes_read)))
(rule (=> (and true)
          (rel.N_4_sha_rd_data_nxt sha_rd_data sha_rd_data)))
(rule (=> (and true)
          (rel.N_4_sha_hs_data_nxt sha_hs_data sha_hs_data)))
